486
1   1   104  155  0 4 18 14 23 7 43 24 25 0
1   2   64   79   0 13 41 40 19 42 0
2   1   23   54   0 47 12 0
2   2   98   153  0 27 6 48 8 26 31 28 22 1 32 11 46 0
3   1   4    18   0 49 0
3   2   100  156  0 9 30 10 39 33 45 15 44 17 37 5 38 0
4   1   46   67   0 35 36 3 20 0
4   2   47   95   0 21 34 50 16 2 29 0